Set parameter Username
Academic license - for non-commercial use only - expires 2023-12-01
Set parameter TimeLimit to value 3600
Set parameter MIPGap to value 1e-06
Set parameter Threads to value 1
Set parameter NodefileStart to value 0.5
Set parameter NodefileDir to value "/home/jossian/Downloads"
Set parameter MIPGap to value 1e-06
Set parameter Threads to value 1
Set parameter NodefileDir to value "/home/jossian/Downloads"
Set parameter NodefileStart to value 0.5
Set parameter TimeLimit to value 3600
Gurobi Optimizer version 10.0.0 build v10.0.0rc2 (linux64)

CPU model: Intel(R) Core(TM) i5-1035G1 CPU @ 1.00GHz, instruction set [SSE2|AVX|AVX2|AVX512]
Thread count: 4 physical cores, 8 logical processors, using up to 1 threads

Optimize a model with 59701 rows, 20100 columns and 139500 nonzeros
Model fingerprint: 0x12b55548
Variable types: 0 continuous, 20100 integer (20100 binary)
Coefficient statistics:
  Matrix range     [1e+00, 2e+01]
  Objective range  [1e+00, 5e+01]
  Bounds range     [0e+00, 0e+00]
  RHS range        [1e+00, 2e+03]
Found heuristic solution: objective 45.0000000
Presolve removed 49710 rows and 14905 columns
Presolve time: 0.33s
Presolved: 9991 rows, 5195 columns, 20180 nonzeros
Variable types: 0 continuous, 5195 integer (5195 binary)
Found heuristic solution: objective 63343.000000

Root relaxation: objective 8.665173e+04, 8887 iterations, 0.36 seconds (0.50 work units)

    Nodes    |    Current Node    |     Objective Bounds      |     Work
 Expl Unexpl |  Obj  Depth IntInf | Incumbent    BestBd   Gap | It/Node Time

     0     0 86651.7282    0 4529 63343.0000 86651.7282  36.8%     -    0s
H    0     0                    84090.000000 86651.7282  3.05%     -    0s
     0     0 86605.7135    0 4698 84090.0000 86605.7135  2.99%     -    1s
     0     0 86587.0220    0 4784 84090.0000 86587.0220  2.97%     -    1s
     0     0 86584.3021    0 4788 84090.0000 86584.3021  2.97%     -    1s
     0     0 86573.4121    0 4825 84090.0000 86573.4121  2.95%     -    1s
     0     0 86569.1523    0 4824 84090.0000 86569.1523  2.95%     -    1s
     0     0 86569.0806    0 4825 84090.0000 86569.0806  2.95%     -    1s
     0     0 86567.2603    0 4821 84090.0000 86567.2603  2.95%     -    2s
     0     0 86566.7740    0 4825 84090.0000 86566.7740  2.95%     -    2s
     0     0 86566.6192    0 4824 84090.0000 86566.6192  2.95%     -    2s
     0     0 86566.0445    0 4824 84090.0000 86566.0445  2.94%     -    2s
     0     0 86566.0124    0 4825 84090.0000 86566.0124  2.94%     -    2s
     0     0 86565.3138    0 4825 84090.0000 86565.3138  2.94%     -    2s
     0     0 86565.2561    0 4825 84090.0000 86565.2561  2.94%     -    2s
     0     0 86564.4403    0 4825 84090.0000 86564.4403  2.94%     -    2s
     0     0 86561.8149    0 4824 84090.0000 86561.8149  2.94%     -    2s
     0     0 86560.4211    0 4824 84090.0000 86560.4211  2.94%     -    3s
     0     0 86560.1951    0 4824 84090.0000 86560.1951  2.94%     -    3s
     0     0 86559.6471    0 4824 84090.0000 86559.6471  2.94%     -    3s
     0     0 86558.7891    0 4873 84090.0000 86558.7891  2.94%     -    3s
     0     0 86558.7621    0 4871 84090.0000 86558.7621  2.94%     -    3s
     0     0 86558.1224    0 4914 84090.0000 86558.1224  2.94%     -    3s
     0     0 86558.1218    0 4915 84090.0000 86558.1218  2.94%     -    3s
     0     0 86557.9778    0 4918 84090.0000 86557.9778  2.93%     -    3s
     0     0 86557.9778    0 4918 84090.0000 86557.9778  2.93%     -    3s
     0     2 86557.7692    0 4918 84090.0000 86557.7692  2.93%     -    3s
H   13    13                    85592.000000 86557.7692  1.13%   258    4s
    24    18 86204.8565    2 1842 85592.0000 86555.6215  1.13%   213    5s
H   27    14                    85663.000000 86555.6215  1.04%   199    5s
H   27    11                    85766.000000 86555.6215  0.92%   199    5s
H   54    15                    85938.000000 86547.1639  0.71%   179    6s
H  135    49                    86014.000000 86340.8601  0.38%   154    8s
H  219    32                    86029.000000 86261.4016  0.27%   131    9s
   232    38 86081.1398    9 1613 86029.0000 86237.8554  0.24%   128   10s
H  359    24                    86047.000000 86157.9949  0.13%   104   11s

Cutting planes:
  Gomory: 2
  RLT: 39

Explored 448 nodes (51023 simplex iterations) in 12.22 seconds (20.69 work units)
Thread count was 1 (of 8 available processors)

Solution count 10: 86047 86029 86014 ... 45

Optimal solution found (tolerance 1.00e-06)
Best objective 8.604700000000e+04, best bound 8.604700000000e+04, gap 0.0000%

User-callback calls 3042, time in user-callback 0.00 sec
